12° run output:
{
    "Function": "kroA500.tsp",
    "Problem dimension": [
        38,
        299,
        336,
        294,
        347,
        389,
        367,
        491,
        288,
        108,
        21,
        435,
        40,
        45,
        397,
        475,
        51,
        76,
        414,
        175,
        233,
        349,
        167,
        55,
        208,
        463,
        85,
        157,
        321,
        104,
        408,
        362,
        459,
        324,
        28,
        327,
        495,
        135,
        160,
        381,
        237,
        205,
        103,
        196,
        17,
        43,
        187,
        86,
        283,
        318,
        156,
        217,
        405,
        262,
        486,
        386,
        131,
        393,
        116,
        30,
        426,
        49,
        253,
        250,
        106,
        7,
        35,
        279,
        247,
        46,
        236,
        77,
        109,
        340,
        270,
        111,
        238,
        257,
        6,
        120,
        147,
        419,
        113,
        266,
        366,
        252,
        305,
        74,
        132,
        271,
        492,
        100,
        420,
        242,
        329,
        316,
        484,
        292,
        328,
        61,
        216,
        314,
        72,
        388,
        97,
        213,
        343,
        421,
        440,
        390,
        176,
        425,
        438,
        409,
        422,
        138,
        417,
        11,
        310,
        177,
        226,
        33,
        145,
        137,
        169,
        373,
        443,
        453,
        353,
        342,
        221,
        178,
        488,
        179,
        296,
        245,
        107,
        448,
        47,
        431,
        142,
        322,
        143,
        5,
        281,
        304,
        37,
        144,
        497,
        231,
        60,
        146,
        255,
        483,
        124,
        311,
        345,
        315,
        207,
        402,
        323,
        8,
        337,
        403,
        184,
        244,
        218,
        430,
        118,
        287,
        32,
        75,
        289,
        165,
        125,
        25,
        44,
        396,
        480,
        451,
        391,
        110,
        39,
        361,
        225,
        92,
        163,
        357,
        268,
        50,
        449,
        22,
        215,
        280,
        269,
        188,
        256,
        306,
        286,
        117,
        186,
        16,
        63,
        71,
        489,
        168,
        209,
        437,
        392,
        496,
        164,
        248,
        312,
        220,
        302,
        150,
        161,
        429,
        201,
        350,
        64,
        119,
        133,
        59,
        193,
        461,
        222,
        206,
        239,
        249,
        325,
        423,
        416,
        115,
        479,
        26,
        10,
        68,
        56,
        67,
        291,
        298,
        91,
        264,
        410,
        313,
        29,
        499,
        230,
        48,
        95,
        427,
        385,
        14,
        197,
        346,
        229,
        458,
        398,
        13,
        344,
        246,
        467,
        194,
        265,
        214,
        295,
        198,
        487,
        149,
        454,
        339,
        341,
        83,
        69,
        400,
        127,
        58,
        472,
        485,
        101,
        354,
        141,
        27,
        377,
        395,
        139,
        154,
        471,
        195,
        130,
        79,
        228,
        374,
        19,
        211,
        436,
        460,
        4,
        53,
        99,
        446,
        171,
        332,
        355,
        376,
        134,
        152,
        183,
        277,
        129,
        383,
        259,
        457,
        300,
        158,
        98,
        428,
        494,
        276,
        54,
        334,
        372,
        153,
        70,
        42,
        151,
        136,
        89,
        166,
        394,
        364,
        490,
        0,
        52,
        380,
        297,
        293,
        424,
        240,
        251,
        241,
        232,
        335,
        363,
        102,
        319,
        433,
        411,
        474,
        200,
        243,
        191,
        404,
        189,
        284,
        445,
        94,
        358,
        24,
        348,
        378,
        34,
        330,
        155,
        351,
        227,
        352,
        73,
        468,
        18,
        464,
        441,
        173,
        303,
        82,
        190,
        456,
        333,
        224,
        462,
        278,
        41,
        114,
        212,
        84,
        301,
        498,
        493,
        192,
        476,
        254,
        434,
        470,
        407,
        413,
        258,
        174,
        12,
        466,
        199,
        148,
        81,
        36,
        482,
        275,
        371,
        235,
        477,
        57,
        338,
        223,
        360,
        181,
        140,
        185,
        307,
        473,
        78,
        219,
        1,
        260,
        202,
        128,
        126,
        182,
        170,
        406,
        23,
        356,
        3,
        285,
        317,
        481,
        62,
        96,
        382,
        365,
        66,
        162,
        105,
        375,
        261,
        20,
        80,
        359,
        432,
        465,
        309,
        442,
        123,
        444,
        439,
        331,
        273,
        478,
        412,
        93,
        368,
        234,
        122,
        370,
        172,
        290,
        455,
        210,
        452,
        88,
        90,
        274,
        87,
        272,
        2,
        415,
        263,
        282,
        31,
        447,
        326,
        369,
        9,
        308,
        450,
        15,
        180,
        159,
        469,
        384,
        387,
        399,
        320,
        112,
        203,
        121,
        65,
        418,
        267,
        401,
        379,
        204
    ],
    "Global Optimum": 0,
    "Algorithm": "Genetic algorithm",
    "Parameters": {
        "population": 30,
        "offspring": 30,
        "mutation probability": 0.002,
        "crossover probability": 0.9
    },
    "Fitness": 641411,
    "Solution": [
        38,
        299,
        336,
        294,
        347,
        389,
        367,
        491,
        288,
        108,
        21,
        435,
        40,
        45,
        397,
        475,
        51,
        76,
        414,
        175,
        233,
        349,
        167,
        55,
        208,
        463,
        85,
        157,
        321,
        104,
        408,
        362,
        459,
        324,
        28,
        327,
        495,
        135,
        160,
        381,
        237,
        205,
        103,
        196,
        17,
        43,
        187,
        86,
        283,
        318,
        156,
        217,
        405,
        262,
        486,
        386,
        131,
        393,
        116,
        30,
        426,
        49,
        253,
        250,
        106,
        7,
        35,
        279,
        247,
        46,
        236,
        77,
        109,
        340,
        270,
        111,
        238,
        257,
        6,
        120,
        147,
        419,
        113,
        266,
        366,
        252,
        305,
        74,
        132,
        271,
        492,
        100,
        420,
        242,
        329,
        316,
        484,
        292,
        328,
        61,
        216,
        314,
        72,
        388,
        97,
        213,
        343,
        421,
        440,
        390,
        176,
        425,
        438,
        409,
        422,
        138,
        417,
        11,
        310,
        177,
        226,
        33,
        145,
        137,
        169,
        373,
        443,
        453,
        353,
        342,
        221,
        178,
        488,
        179,
        296,
        245,
        107,
        448,
        47,
        431,
        142,
        322,
        143,
        5,
        281,
        304,
        37,
        144,
        497,
        231,
        60,
        146,
        255,
        483,
        124,
        311,
        345,
        315,
        207,
        402,
        323,
        8,
        337,
        403,
        184,
        244,
        218,
        430,
        118,
        287,
        32,
        75,
        289,
        165,
        125,
        25,
        44,
        396,
        480,
        451,
        391,
        110,
        39,
        361,
        225,
        92,
        163,
        357,
        268,
        50,
        449,
        22,
        215,
        280,
        269,
        188,
        256,
        306,
        286,
        117,
        186,
        16,
        63,
        71,
        489,
        168,
        209,
        437,
        392,
        496,
        164,
        248,
        312,
        220,
        302,
        150,
        161,
        429,
        201,
        350,
        64,
        119,
        133,
        59,
        193,
        461,
        222,
        206,
        239,
        249,
        325,
        423,
        416,
        115,
        479,
        26,
        10,
        68,
        56,
        67,
        291,
        298,
        91,
        264,
        410,
        313,
        29,
        499,
        230,
        48,
        95,
        427,
        385,
        14,
        197,
        346,
        229,
        458,
        398,
        13,
        344,
        246,
        467,
        194,
        265,
        214,
        295,
        198,
        487,
        149,
        454,
        339,
        341,
        83,
        69,
        400,
        127,
        58,
        472,
        485,
        101,
        354,
        141,
        27,
        377,
        395,
        139,
        154,
        471,
        195,
        130,
        79,
        228,
        374,
        19,
        211,
        436,
        460,
        4,
        53,
        99,
        446,
        171,
        332,
        355,
        376,
        134,
        152,
        183,
        277,
        129,
        383,
        259,
        457,
        300,
        158,
        98,
        428,
        494,
        276,
        54,
        334,
        372,
        153,
        70,
        42,
        151,
        136,
        89,
        166,
        394,
        364,
        490,
        0,
        52,
        380,
        297,
        293,
        424,
        240,
        251,
        241,
        232,
        335,
        363,
        102,
        319,
        433,
        411,
        474,
        200,
        243,
        191,
        404,
        189,
        284,
        445,
        94,
        358,
        24,
        348,
        378,
        34,
        330,
        155,
        351,
        227,
        352,
        73,
        468,
        18,
        464,
        441,
        173,
        303,
        82,
        190,
        456,
        333,
        224,
        462,
        278,
        41,
        114,
        212,
        84,
        301,
        498,
        493,
        192,
        476,
        254,
        434,
        470,
        407,
        413,
        258,
        174,
        12,
        466,
        199,
        148,
        81,
        36,
        482,
        275,
        371,
        235,
        477,
        57,
        338,
        223,
        360,
        181,
        140,
        185,
        307,
        473,
        78,
        219,
        1,
        260,
        202,
        128,
        126,
        182,
        170,
        406,
        23,
        356,
        3,
        285,
        317,
        481,
        62,
        96,
        382,
        365,
        66,
        162,
        105,
        375,
        261,
        20,
        80,
        359,
        432,
        465,
        309,
        442,
        123,
        444,
        439,
        331,
        273,
        478,
        412,
        93,
        368,
        234,
        122,
        370,
        172,
        290,
        455,
        210,
        452,
        88,
        90,
        274,
        87,
        272,
        2,
        415,
        263,
        282,
        31,
        447,
        326,
        369,
        9,
        308,
        450,
        15,
        180,
        159,
        469,
        384,
        387,
        399,
        320,
        112,
        203,
        121,
        65,
        418,
        267,
        401,
        379,
        204
    ],
    "Nb of functions evaluations": 50010,
    "Computational time in seconds": 363.1661055088043,
    "Stopping criterion in evaluations": 50000
}